12 40 9 10
7 1 18 17 8 13 17 12 10 7 5 19 15 16 6 10 8 17 16 15 9 3 6 4 10 10 8 9 19 7 7 2 17 19 8 17 19 19 8 9 
1.63 13.08 8.93 0.71 7.27 4.52 10.36 7.18 7.69 3.88 4.01 14.51 10.11 9.17 14.83 6.79 3.9 0.91 7.21 8.55 14.05 12.1 6.73 6.21 7.73 7.49 9.22 0.38 1.52 6.89 3.68 8.8 8.8 11.93 13.21 0.66 3.67 9.28 3.09 14.4 
11.42 1.67 8.03 0.89 8.9 9.97 9.99 11.34 10.74 7.53 14.83 11.68 0.89 12.41 13.39 6.72 10.81 9 2.86 8.87 7.08 12.33 15.4 11.39 0.02 7.98 12.74 10.96 11.2 8.24 13.2 15.42 10.03 4.47 6.87 5.21 10.57 7.47 0.34 7.79 
11.47 5.82 6.36 14.07 15.27 14.26 5.55 7.14 4.09 14.51 12.47 6.78 6.03 15.1 7.47 11.11 3.88 3.93 7.07 13.53 1.55 13.56 6.9 3.37 9.95 15.28 12.51 0.54 1.18 3.37 10.41 0.47 12.21 14.36 5.59 8.36 1.41 0.12 1.96 6.35 
13.17 7.76 15.55 11.13 14.46 7.47 3.74 6.38 12.29 5.84 0.92 9.25 12.75 8.09 14.17 15.21 7.93 0.42 7.31 7.94 4.07 10.6 0.26 4.97 4.73 12.28 14.61 4.75 5.17 4.3 2.99 10.91 0.14 13.42 8.22 1.99 15.51 8.12 14.9 8.36 
0.24 12.73 12.05 12.23 5.01 9.15 10.59 0.06 7.74 9.7 11.73 7.91 1.56 15.65 6.97 7.38 12.48 8.13 12.6 10.03 2.35 14.49 4.4 6.45 15.99 12.2 11.5 9.08 5.84 8.8 0.23 15.06 4.94 1.89 14.33 4.16 7.69 13.37 3.02 3.75 
11.46 1.31 1.01 2.21 14.46 15.35 14.34 13.28 15.76 10.74 13.87 5.92 2.29 10.82 1.45 13.74 15.81 8.49 8 13.78 11.66 10.85 1.23 10.2 3.45 2.21 7.36 12.44 0.67 0.2 10.52 9.84 7.43 9.56 7.43 13.98 9.42 4.65 7.74 14.43 
7.82 6.48 10.73 0.57 1.93 8.22 13.65 2.94 1.19 7.24 5.46 10.88 4.26 11.44 9.02 9.59 4.89 2.14 0.02 11.9 13.73 11.32 5.26 10.03 5.8 12.76 14.79 5.59 9.74 7.57 8.73 10.34 15.08 10.59 4.89 12 14 0.12 15.45 11.33 
0.32 10.6 7.87 1.41 14.88 10.6 11.72 3.25 15.32 5.09 6.63 14.8 10.98 12.06 6.88 15.64 1.56 11.59 14.77 9.17 11.12 9.83 14.71 11.53 15.96 12.54 2.05 13.71 1.22 10.46 9.9 7.69 13.39 10.23 11.06 12.14 4.49 8.76 5.43 1.97 
9.59 11.67 11.51 14.97 7.26 1.85 0.93 9.01 11.06 14.63 6.12 1.49 8.46 5.62 13.64 9.07 3.22 12.79 13.8 10.26 4.55 1.96 9.22 7.52 10.1 11.1 8.88 2.79 6.31 14.93 1.83 12.14 0.67 5.98 1.96 13.44 6.77 1.98 5.07 7.1 
8 8 8 8 8 8 8 8 8 8 8 8 8 8 8 8 8 8 8 8 8 8 8 8 8 8 8 8 8 8 8 8 8 8 8 8 8 8 8 8 
3.15 4.16 3.43 13.35 9.79 9.95 5.04 9.93 14.5 0.56 14.2 4.75 1.92 5.48 5.43 15.41 12.49 10.24 15.12 1.94 12.68 8.85 13.91 8.68 5.12 1.6 1.21 6.85 4.4 13.62 8.1 13.33 15.1 3.66 11.91 1.53 4.02 6.01 9.96 2.47 
10.44 4.59 12.65 4.08 4.96 7.25 0.53 0.2 13.29 11.5 9.86 10.68 8.65 4.17 7.3 7.92 4.23 12.41 1.91 9.02 1.72 0.8 0.36 2.07 3.07 12.01 12.81 2.43 14.98 8.93 6.15 11.23 1.63 13.05 6.02 14.32 7.31 9.98 8.55 1.49 
1 1 1 1 1 1 1 1 1 1 1 1 1 1 1 1 1 1 1 1 1 1 1 1 1 1 1 1 1 1 1 1 1 1 1 1 1 1 1 1 
1 1 1 1 1 1 1 1 1 1 1 1 1 1 1 1 1 1 1 1 1 1 1 1 1 1 1 1 1 1 1 1 1 1 1 1 1 1 1 1 
1 1 1 1 1 1 1 1 1 1 1 1 1 1 1 1 1 1 1 1 1 1 1 1 1 1 1 1 1 1 1 1 1 1 1 1 1 1 1 1 
1 1 1 1 1 1 1 1 1 1 1 1 1 1 1 1 1 1 1 1 1 1 1 1 1 1 1 1 1 1 1 1 1 1 1 1 1 1 1 1 
1 1 1 1 1 1 1 1 1 1 1 1 1 1 1 1 1 1 1 1 1 1 1 1 1 1 1 1 1 1 1 1 1 1 1 1 1 1 1 1 
1 1 1 1 1 1 1 1 1 1 1 1 1 1 1 1 1 1 1 1 1 1 1 1 1 1 1 1 1 1 1 1 1 1 1 1 1 1 1 1 
1 1 1 1 1 1 1 1 1 1 1 1 1 1 1 1 1 1 1 1 1 1 1 1 1 1 1 1 1 1 1 1 1 1 1 1 1 1 1 1 
1 1 1 1 1 1 1 1 1 1 1 1 1 1 1 1 1 1 1 1 1 1 1 1 1 1 1 1 1 1 1 1 1 1 1 1 1 1 1 1 
1 1 1 1 1 1 1 1 1 1 1 1 1 1 1 1 1 1 1 1 1 1 1 1 1 1 1 1 1 1 1 1 1 1 1 1 1 1 1 1 
1 1 1 1 1 1 1 1 1 1 1 1 1 1 1 1 1 1 1 1 1 1 1 1 1 1 1 1 1 1 1 1 1 1 1 1 1 1 1 1 
1 1 1 1 1 1 1 1 1 1 1 1 1 1 1 1 1 1 1 1 1 1 1 1 1 1 1 1 1 1 1 1 1 1 1 1 1 1 1 1 
1 1 1 1 1 1 1 1 1 1 1 1 1 1 1 1 1 1 1 1 1 1 1 1 1 1 1 1 1 1 1 1 1 1 1 1 1 1 1 1 
0.01 0.01 0.01 0.01 0.01 0.01 0.01 0.01 0.01 0.01 0.01 0.01 0.01 0.01 0.01 0.01 0.01 0.01 0.01 0.01 0.01 0.01 0.01 0.01 0.01 0.01 0.01 0.01 0.01 0.01 0.01 0.01 0.01 0.01 0.01 0.01 0.01 0.01 0.01 0.01 
0.02 0.02 0.02 0.02 0.02 0.02 0.02 0.02 0.02 0.02 0.02 0.02 0.02 0.02 0.02 0.02 0.02 0.02 0.02 0.02 0.02 0.02 0.02 0.02 0.02 0.02 0.02 0.02 0.02 0.02 0.02 0.02 0.02 0.02 0.02 0.02 0.02 0.02 0.02 0.02 
0.03 0.03 0.03 0.03 0.03 0.03 0.03 0.03 0.03 0.03 0.03 0.03 0.03 0.03 0.03 0.03 0.03 0.03 0.03 0.03 0.03 0.03 0.03 0.03 0.03 0.03 0.03 0.03 0.03 0.03 0.03 0.03 0.03 0.03 0.03 0.03 0.03 0.03 0.03 0.03 
0.04 0.04 0.04 0.04 0.04 0.04 0.04 0.04 0.04 0.04 0.04 0.04 0.04 0.04 0.04 0.04 0.04 0.04 0.04 0.04 0.04 0.04 0.04 0.04 0.04 0.04 0.04 0.04 0.04 0.04 0.04 0.04 0.04 0.04 0.04 0.04 0.04 0.04 0.04 0.04 
0.05 0.05 0.05 0.05 0.05 0.05 0.05 0.05 0.05 0.05 0.05 0.05 0.05 0.05 0.05 0.05 0.05 0.05 0.05 0.05 0.05 0.05 0.05 0.05 0.05 0.05 0.05 0.05 0.05 0.05 0.05 0.05 0.05 0.05 0.05 0.05 0.05 0.05 0.05 0.05 
0.06 0.06 0.06 0.06 0.06 0.06 0.06 0.06 0.06 0.06 0.06 0.06 0.06 0.06 0.06 0.06 0.06 0.06 0.06 0.06 0.06 0.06 0.06 0.06 0.06 0.06 0.06 0.06 0.06 0.06 0.06 0.06 0.06 0.06 0.06 0.06 0.06 0.06 0.06 0.06 
0.07 0.07 0.07 0.07 0.07 0.07 0.07 0.07 0.07 0.07 0.07 0.07 0.07 0.07 0.07 0.07 0.07 0.07 0.07 0.07 0.07 0.07 0.07 0.07 0.07 0.07 0.07 0.07 0.07 0.07 0.07 0.07 0.07 0.07 0.07 0.07 0.07 0.07 0.07 0.07 
0.08 0.08 0.08 0.08 0.08 0.08 0.08 0.08 0.08 0.08 0.08 0.08 0.08 0.08 0.08 0.08 0.08 0.08 0.08 0.08 0.08 0.08 0.08 0.08 0.08 0.08 0.08 0.08 0.08 0.08 0.08 0.08 0.08 0.08 0.08 0.08 0.08 0.08 0.08 0.08 
0.09 0.09 0.09 0.09 0.09 0.09 0.09 0.09 0.09 0.09 0.09 0.09 0.09 0.09 0.09 0.09 0.09 0.09 0.09 0.09 0.09 0.09 0.09 0.09 0.09 0.09 0.09 0.09 0.09 0.09 0.09 0.09 0.09 0.09 0.09 0.09 0.09 0.09 0.09 0.09 
0.1 0.1 0.1 0.1 0.1 0.1 0.1 0.1 0.1 0.1 0.1 0.1 0.1 0.1 0.1 0.1 0.1 0.1 0.1 0.1 0.1 0.1 0.1 0.1 0.1 0.1 0.1 0.1 0.1 0.1 0.1 0.1 0.1 0.1 0.1 0.1 0.1 0.1 0.1 0.1 
0.5 0.5 0.5 0.5 0.5 0.5 0.5 0.5 0.5 0.5 0.5 0.5 0.5 0.5 0.5 0.5 0.5 0.5 0.5 0.5 0.5 0.5 0.5 0.5 0.5 0.5 0.5 0.5 0.5 0.5 0.5 0.5 0.5 0.5 0.5 0.5 0.5 0.5 0.5 0.5 
1 1 1 1 1 1 1 1 1 1 1 1 1 1 1 1 1 1 1 1 1 1 1 1 1 1 1 1 1 1 1 1 1 1 1 1 1 1 1 1 
